n_res = 4;
rc = [ 12, 20, 10, 15 ];
n_tasks = 30;
d = [ 2, 10, 10, 8, 4, 7, 6, 5, 7, 2, 10, 5, 2, 2, 8, 1, 10, 8, 4, 3, 6, 8, 6, 10, 9, 3, 6, 1, 7, 10 ];
rr = [| 5, 5, 0, 0, 0, 0, 0, 0, 0, 0, 0, 9, 0, 0, 0, 0, 0, 0, 0, 0, 0, 0, 0, 0, 0, 0, 0, 2, 0, 0
      | 0, 0, 4, 7, 0, 0, 9, 2, 0, 1, 7, 0, 6, 0, 0, 0, 1, 0, 0, 0, 5, 8, 3, 0, 0, 0, 1, 0, 0, 0
      | 0, 0, 0, 0, 9, 0, 0, 0, 0, 0, 0, 0, 0, 4, 0, 9, 0, 0, 0, 0, 0, 0, 0, 0, 0, 5, 0, 0, 0, 10
      | 0, 0, 0, 0, 0, 2, 0, 0, 7, 0, 0, 0, 0, 0, 8, 0, 0, 4, 2, 9, 0, 0, 0, 10, 10, 0, 0, 0, 9, 0 |];
suc = [ { 5, 17 },
       { 4, 14, 21 },
       { 8, 13 },
       { 9, 15, 17 },
       { 6, 10, 12 },
       { 7, 22 },
       { 16 },
       { 20, 26 },
       { 13, 25 },
       { 11, 14, 30 },
       { 18, 23, 29 },
       { 13, 18 },
       { 23, 27, 29 },
       { 19, 29 },
       { 22, 25 },
       { 28, 30 },
       { 20, 22, 26 },
       { 19, 24 },
       { 20 },
       { 25 },
       { 24 },
       { 24, 30 },
       { 26 },
       { 27 },
       { 27 },
       { 28 },
       { 28 },
       {  },
       {  },
       {  } ];
